196
0 173 3 126 81 96 150 153 142 114 
98 151 108 13 143 50 66 7 56 31 
43 166 144 92 83 119 2 54 118 120 
62 136 64 41 11 27 107 182 78 189 
73 48 158 35 157 49 171 20 1 53 
24 181 127 87 12 124 5 45 68 88 
21 132 104 37 176 134 137 186 93 160 
195 133 128 112 44 100 179 86 91 184 
19 97 30 172 39 10 111 52 36 63 
183 116 18 55 59 115 167 138 113 51 
180 72 70 29 154 65 6 61 105 175 
162 125 149 187 164 169 32 76 42 102 
174 85 25 101 152 170 90 77 163 60 
4 69 135 23 26 148 191 109 147 80 
117 34 129 38 193 146 40 185 15 131 
79 46 67 89 94 17 122 145 156 161 
28 47 82 99 16 177 22 74 130 140 
71 110 106 95 159 141 192 194 121 33 
58 75 84 165 123 188 14 155 9 8 
190 139 168 57 178 103 
